10	5
2 81	4 68	0 148	3 1	1 189
1 87	4 118	2 173	3 120	0 134
4 31	2 23	0 20	1 120	3 179
2 68	4 54	1 136	0 107	3 17
4 179	0 53	3 17	1 110	2 77
2 68	0 39	1 8	3 69	4 192
4 87	2 180	1 33	0 139	3 115
3 87	0 132	1 191	2 131	4 105
2 58	3 85	0 181	4 165	1 89
4 92	3 166	0 25	1 195	2 134
